Nodes = {"Gdansk", "Bydgoszcz", "Kolobrzeg", "Katowice", "Krakow", "Bialystok", "Lodz", "Poznan", "Rzeszow", "Szczecin", "Warsaw", "Wroclaw"};
Arcs = {<"Gdansk","Bydgoszcz",30,1>, <"Gdansk","Kolobrzeg",30,0>, <"Gdansk","Katowice",30,4>, <"Gdansk","Krakow",30,4>, <"Gdansk","Bialystok",30,0>, <"Gdansk","Lodz",30,3>, <"Gdansk","Poznan",30,3>, <"Gdansk","Rzeszow",30,5>, <"Gdansk","Szczecin",30,4>, <"Gdansk","Warsaw",30,0>, <"Gdansk","Wroclaw",30,4>, <"Bydgoszcz","Gdansk",30,1>, <"Bydgoszcz","Kolobrzeg",30,0>, <"Bydgoszcz","Katowice",30,3>, <"Bydgoszcz","Krakow",30,4>, <"Bydgoszcz","Bialystok",30,5>, <"Bydgoszcz","Lodz",30,2>, <"Bydgoszcz","Poznan",30,0>, <"Bydgoszcz","Rzeszow",30,5>, <"Bydgoszcz","Szczecin",30,3>, <"Bydgoszcz","Warsaw",30,0>, <"Bydgoszcz","Wroclaw",30,2>, <"Kolobrzeg","Gdansk",30,0>, <"Kolobrzeg","Bydgoszcz",30,0>, <"Kolobrzeg","Katowice",30,5>, <"Kolobrzeg","Krakow",30,6>, <"Kolobrzeg","Bialystok",30,7>, <"Kolobrzeg","Lodz",30,4>, <"Kolobrzeg","Poznan",30,2>, <"Kolobrzeg","Rzeszow",30,7>, <"Kolobrzeg","Szczecin",30,0>, <"Kolobrzeg","Warsaw",30,5>, <"Kolobrzeg","Wroclaw",30,3>, <"Katowice","Gdansk",30,4>, <"Katowice","Bydgoszcz",30,3>, <"Katowice","Kolobrzeg",30,5>, <"Katowice","Krakow",30,0>, <"Katowice","Bialystok",30,5>, <"Katowice","Lodz",30,0>, <"Katowice","Poznan",30,3>, <"Katowice","Rzeszow",30,3>, <"Katowice","Szczecin",30,5>, <"Katowice","Warsaw",30,3>, <"Katowice","Wroclaw",30,0>, <"Krakow","Gdansk",30,4>, <"Krakow","Bydgoszcz",30,4>, <"Krakow","Kolobrzeg",30,6>, <"Krakow","Katowice",30,0>, <"Krakow","Bialystok",30,5>, <"Krakow","Lodz",30,2>, <"Krakow","Poznan",30,4>, <"Krakow","Rzeszow",30,0>, <"Krakow","Szczecin",30,6>, <"Krakow","Warsaw",30,0>, <"Krakow","Wroclaw",30,3>, <"Bialystok","Gdansk",30,0>, <"Bialystok","Bydgoszcz",30,5>, <"Bialystok","Kolobrzeg",30,7>, <"Bialystok","Katowice",30,5>, <"Bialystok","Krakow",30,5>, <"Bialystok","Lodz",30,4>, <"Bialystok","Poznan",30,6>, <"Bialystok","Rzeszow",30,0>, <"Bialystok","Szczecin",30,9>, <"Bialystok","Warsaw",30,0>, <"Bialystok","Wroclaw",30,7>, <"Lodz","Gdansk",30,3>, <"Lodz","Bydgoszcz",30,2>, <"Lodz","Kolobrzeg",30,4>, <"Lodz","Katowice",30,0>, <"Lodz","Krakow",30,2>, <"Lodz","Bialystok",30,4>, <"Lodz","Poznan",30,3>, <"Lodz","Rzeszow",30,3>, <"Lodz","Szczecin",30,5>, <"Lodz","Warsaw",30,0>, <"Lodz","Wroclaw",30,0>, <"Poznan","Gdansk",30,3>, <"Poznan","Bydgoszcz",30,0>, <"Poznan","Kolobrzeg",30,2>, <"Poznan","Katowice",30,3>, <"Poznan","Krakow",30,4>, <"Poznan","Bialystok",30,6>, <"Poznan","Lodz",30,3>, <"Poznan","Rzeszow",30,6>, <"Poznan","Szczecin",30,0>, <"Poznan","Warsaw",30,4>, <"Poznan","Wroclaw",30,0>, <"Rzeszow","Gdansk",30,5>, <"Rzeszow","Bydgoszcz",30,5>, <"Rzeszow","Kolobrzeg",30,7>, <"Rzeszow","Katowice",30,3>, <"Rzeszow","Krakow",30,0>, <"Rzeszow","Bialystok",30,0>, <"Rzeszow","Lodz",30,3>, <"Rzeszow","Poznan",30,6>, <"Rzeszow","Szczecin",30,8>, <"Rzeszow","Warsaw",30,2>, <"Rzeszow","Wroclaw",30,5>, <"Szczecin","Gdansk",30,4>, <"Szczecin","Bydgoszcz",30,3>, <"Szczecin","Kolobrzeg",30,0>, <"Szczecin","Katowice",30,5>, <"Szczecin","Krakow",30,6>, <"Szczecin","Bialystok",30,9>, <"Szczecin","Lodz",30,5>, <"Szczecin","Poznan",30,0>, <"Szczecin","Rzeszow",30,8>, <"Szczecin","Warsaw",30,7>, <"Szczecin","Wroclaw",30,3>, <"Warsaw","Gdansk",30,0>, <"Warsaw","Bydgoszcz",30,0>, <"Warsaw","Kolobrzeg",30,5>, <"Warsaw","Katowice",30,3>, <"Warsaw","Krakow",30,0>, <"Warsaw","Bialystok",30,0>, <"Warsaw","Lodz",30,0>, <"Warsaw","Poznan",30,4>, <"Warsaw","Rzeszow",30,2>, <"Warsaw","Szczecin",30,7>, <"Warsaw","Wroclaw",30,4>, <"Wroclaw","Gdansk",30,4>, <"Wroclaw","Bydgoszcz",30,2>, <"Wroclaw","Kolobrzeg",30,3>, <"Wroclaw","Katowice",30,0>, <"Wroclaw","Krakow",30,3>, <"Wroclaw","Bialystok",30,7>, <"Wroclaw","Lodz",30,0>, <"Wroclaw","Poznan",30,0>, <"Wroclaw","Rzeszow",30,5>, <"Wroclaw","Szczecin",30,3>, <"Wroclaw","Warsaw",30,4>};
Demands = {<"Gdansk","Bydgoszcz",2,0>, <"Gdansk","Kolobrzeg",4,0>, <"Gdansk","Katowice",6,0>, <"Gdansk","Krakow",8,0>, <"Gdansk","Bialystok",10,0>, <"Gdansk","Lodz",12,0>, <"Gdansk","Poznan",14,0>, <"Gdansk","Rzeszow",16,0>, <"Gdansk","Szczecin",18,0>, <"Gdansk","Warsaw",20,0>, <"Gdansk","Wroclaw",22,0>, <"Bydgoszcz","Gdansk",2,0>, <"Bydgoszcz","Kolobrzeg",2,0>, <"Bydgoszcz","Katowice",4,0>, <"Bydgoszcz","Krakow",6,0>, <"Bydgoszcz","Bialystok",8,0>, <"Bydgoszcz","Lodz",10,0>, <"Bydgoszcz","Poznan",12,0>, <"Bydgoszcz","Rzeszow",14,0>, <"Bydgoszcz","Szczecin",16,0>, <"Bydgoszcz","Warsaw",18,0>, <"Bydgoszcz","Wroclaw",20,0>, <"Kolobrzeg","Gdansk",4,0>, <"Kolobrzeg","Bydgoszcz",2,0>, <"Kolobrzeg","Katowice",2,0>, <"Kolobrzeg","Krakow",4,0>, <"Kolobrzeg","Bialystok",6,0>, <"Kolobrzeg","Lodz",8,0>, <"Kolobrzeg","Poznan",10,0>, <"Kolobrzeg","Rzeszow",12,0>, <"Kolobrzeg","Szczecin",14,0>, <"Kolobrzeg","Warsaw",16,0>, <"Kolobrzeg","Wroclaw",18,0>, <"Katowice","Gdansk",6,0>, <"Katowice","Bydgoszcz",4,0>, <"Katowice","Kolobrzeg",2,0>, <"Katowice","Krakow",2,0>, <"Katowice","Bialystok",4,0>, <"Katowice","Lodz",6,0>, <"Katowice","Poznan",8,0>, <"Katowice","Rzeszow",10,0>, <"Katowice","Szczecin",12,0>, <"Katowice","Warsaw",14,0>, <"Katowice","Wroclaw",16,0>, <"Krakow","Gdansk",8,0>, <"Krakow","Bydgoszcz",6,0>, <"Krakow","Kolobrzeg",4,0>, <"Krakow","Katowice",2,0>, <"Krakow","Bialystok",2,0>, <"Krakow","Lodz",4,0>, <"Krakow","Poznan",6,0>, <"Krakow","Rzeszow",8,0>, <"Krakow","Szczecin",10,0>, <"Krakow","Warsaw",12,0>, <"Krakow","Wroclaw",14,0>, <"Bialystok","Gdansk",10,0>, <"Bialystok","Bydgoszcz",8,0>, <"Bialystok","Kolobrzeg",6,0>, <"Bialystok","Katowice",4,0>, <"Bialystok","Krakow",2,0>, <"Bialystok","Lodz",2,0>, <"Bialystok","Poznan",4,0>, <"Bialystok","Rzeszow",6,0>, <"Bialystok","Szczecin",8,0>, <"Bialystok","Warsaw",10,0>, <"Bialystok","Wroclaw",12,0>, <"Lodz","Gdansk",12,0>, <"Lodz","Bydgoszcz",10,0>, <"Lodz","Kolobrzeg",8,0>, <"Lodz","Katowice",6,0>, <"Lodz","Krakow",4,0>, <"Lodz","Bialystok",2,0>, <"Lodz","Poznan",2,0>, <"Lodz","Rzeszow",4,0>, <"Lodz","Szczecin",6,0>, <"Lodz","Warsaw",8,0>, <"Lodz","Wroclaw",10,0>, <"Poznan","Gdansk",14,0>, <"Poznan","Bydgoszcz",12,0>, <"Poznan","Kolobrzeg",10,0>, <"Poznan","Katowice",8,0>, <"Poznan","Krakow",6,0>, <"Poznan","Bialystok",4,0>, <"Poznan","Lodz",2,0>, <"Poznan","Rzeszow",2,0>, <"Poznan","Szczecin",4,0>, <"Poznan","Warsaw",6,0>, <"Poznan","Wroclaw",8,0>, <"Rzeszow","Gdansk",16,0>, <"Rzeszow","Bydgoszcz",14,0>, <"Rzeszow","Kolobrzeg",12,0>, <"Rzeszow","Katowice",10,0>, <"Rzeszow","Krakow",8,0>, <"Rzeszow","Bialystok",6,0>, <"Rzeszow","Lodz",4,0>, <"Rzeszow","Poznan",2,0>, <"Rzeszow","Szczecin",2,0>, <"Rzeszow","Warsaw",4,0>, <"Rzeszow","Wroclaw",6,0>, <"Szczecin","Gdansk",18,0>, <"Szczecin","Bydgoszcz",16,0>, <"Szczecin","Kolobrzeg",14,0>, <"Szczecin","Katowice",12,0>, <"Szczecin","Krakow",10,0>, <"Szczecin","Bialystok",8,0>, <"Szczecin","Lodz",6,0>, <"Szczecin","Poznan",4,0>, <"Szczecin","Rzeszow",2,0>, <"Szczecin","Warsaw",2,0>, <"Szczecin","Wroclaw",4,0>, <"Warsaw","Gdansk",20,0>, <"Warsaw","Bydgoszcz",18,0>, <"Warsaw","Kolobrzeg",16,0>, <"Warsaw","Katowice",14,0>, <"Warsaw","Krakow",12,0>, <"Warsaw","Bialystok",10,0>, <"Warsaw","Lodz",8,0>, <"Warsaw","Poznan",6,0>, <"Warsaw","Rzeszow",4,0>, <"Warsaw","Szczecin",2,0>, <"Warsaw","Wroclaw",2,0>, <"Wroclaw","Gdansk",22,0>, <"Wroclaw","Bydgoszcz",20,0>, <"Wroclaw","Kolobrzeg",18,0>, <"Wroclaw","Katowice",16,0>, <"Wroclaw","Krakow",14,0>, <"Wroclaw","Bialystok",12,0>, <"Wroclaw","Lodz",10,0>, <"Wroclaw","Poznan",8,0>, <"Wroclaw","Rzeszow",6,0>, <"Wroclaw","Szczecin",4,0>, <"Wroclaw","Warsaw",2,0>};
